6046
6085
6048
6232
6191
6120
6102
6095
6054
6072
6017
6076
6169
6065
6027
6039
6109
5943
6070
6118
6065
5935
6154
6085
6119
6085
5958
6178
5983
6106
6081
6067
6084
6191
6073
5990
6135
6102
6066
6033
6125
6064
6023
6090
6153
6003
6118
6113
5986
6180
6082
6032
6060
6084
6042
6044
6141
6107
6084
6067
6089
5903
6133
6004
5908
6042
6101
5983
5984
6082
6160
5996
6073
5723
6217
6025
6166
6095
6143
6076
6072
6017
6143
6154
6085
6089
6128
6163
6095
6072
6163
6133
6074
6113
6129
6156
6139
6180
6106
6097
